c turning on binary mode checking
c parsing input formula with 259840 variables and 1039929 clauses
c finished parsing, read 23686522 bytes from proof file
c detected empty clause; start verification via backward checking
c 20039 of 1039929 clauses in core                            
c 25702 of 606975 lemmas in core using 146730 resolution steps
c 0 RAT lemmas in core; 1167 redundant literals in core lemmas
s VERIFIED
c verification time: 3.129 seconds
